problems/csplib-prob065/opd-models/noch/O2/minion/model_1-small_bibd_16_16_06-solution000001.solution
language Essence 1.3

letting lambda be 2
letting opd be
        {{1, 2, 7, 10, 12, 13}, {1, 2, 8, 9, 11, 14}, {1, 3, 5, 10, 11, 15}, {1, 3, 6, 9, 12, 16}, {1, 4, 5, 8, 13, 16},
         {1, 4, 6, 7, 14, 15}, {2, 3, 5, 7, 14, 16}, {2, 3, 6, 8, 13, 15}, {2, 4, 5, 9, 12, 15}, {2, 4, 6, 10, 11, 16},
         {3, 4, 7, 9, 11, 13}, {3, 4, 8, 10, 12, 14}, {5, 6, 7, 8, 11, 12}, {5, 6, 9, 10, 13, 14},
         {7, 8, 9, 10, 15, 16}, {11, 12, 13, 14, 15, 16}}
$ Visualisation for opd
$  1  2  7 10 12 13
$  1  2  8  9 11 14
$  1  3  5 10 11 15
$  1  3  6  9 12 16
$  1  4  5  8 13 16
$  1  4  6  7 14 15
$  2  3  5  7 14 16
$  2  3  6  8 13 15
$  2  4  5  9 12 15
$  2  4  6 10 11 16
$  3  4  7  9 11 13
$  3  4  8 10 12 14
$  5  6  7  8 11 12
$  5  6  9 10 13 14
$  7  8  9 10 15 16
$ 11 12 13 14 15 16

